Maximize
F - ff - gg

Subject to
F - f1 - f2 - f3 - f4 = 0
f1 - 40X84 - 20X87 - 30X97 - 30X109 - 30X114 = 0
f2 - 20.0Y84 - 10.0Y87 - 15.0Y97 - 15.0Y109 - 15.0Y114 = 0
f3 - 12.0Z84 - 6.0Z87 - 9.0Z97 - 9.0Z109 - 9.0Z114 = 0
f4 = 0

ff - 0.010775s84 - 0.010775s87 - 0.010775s97 - 0.010775s109 - 0.010775s114 
- 0.010775t84 - 0.010775t87 - 0.010775t97 - 0.010775t109 - 0.010775t114 
- 0.010775u84 - 0.010775u87 - 0.010775u97 - 0.010775u109 - 0.010775u114 

= 0
gg - 2.973370Y84 - 2.747691Y87 - 2.827198Y97 - 2.958533Y109 - 3.008928Y114 
- 2.445370Z84 - 2.219691Z87 - 2.299198Z97 - 2.430533Z109 - 2.480928Z114 
= 0

n1 - X84 - X87 - X97 - X109 - X114 = 0
n2 - Y84 - Y87 - Y97 - Y109 - Y114 = 0
n3 - Z84 - Z87 - Z97 - Z109 - Z114 = 0
n4 = 0

X84 + Y84 <= 1
X87 + Y87 <= 1
X97 + Y97 <= 1
X109 + Y109 <= 1
X114 + Y114 <= 1

X84 + Z84 <= 1
X87 + Z87 <= 1
X97 + Z97 <= 1
X109 + Z109 <= 1
X114 + Z114 <= 1


x65x87x1 + x65x114x1 
+ y65y87y1 + y65y114y1 
<= 1




x119x87x1 + x119x114x1 
+ y119y87y1 + y119y114y1 
<= 1

x22x87x1 + x22x114x1 
+ y22y87y1 + y22y114y1 
<= 2
x169x87x1 + x169x114x1 
+ y169y87y1 + y169y114y1 
<= 2

x201x97x2 + x201x109x2 + x201x114x2 
+ y201y97y2 + y201y109y2 + y201y114y2 
<= 1
x159x97x2 + x159x109x2 + x159x114x2 
+ y159y97y2 + y159y109y2 + y159y114y2 
<= 2
x4x97x2 + x4x109x2 + x4x114x2 
+ y4y97y2 + y4y109y2 + y4y114y2 
<= 2

x119x97x2 + x119x109x2 + x119x114x2 
+ y119y97y2 + y119y109y2 + y119y114y2 
<= 1



x65x84x3 + x65x97x3 
+ y65y84y3 + y65y97y3 
<= 1
x201x84x3 + x201x97x3 
+ y201y84y3 + y201y97y3 
<= 1


x165x84x3 + x165x97x3 
+ y165y84y3 + y165y97y3 
<= 2

x212x84x3 + x212x97x3 
+ y212y84y3 + y212y97y3 
<= 2


x65x87x1 + x65x114x1 
+ z65z87z1 + z65z114z1 
<= 1




x119x87x1 + x119x114x1 
+ z119z87z1 + z119z114z1 
<= 1

x22x87x1 + x22x114x1 
+ z22z87z1 + z22z114z1 
<= 2
x169x87x1 + x169x114x1 
+ z169z87z1 + z169z114z1 
<= 2

x201x97x2 + x201x109x2 + x201x114x2 
+ z201z97z2 + z201z109z2 + z201z114z2 
<= 1
x159x97x2 + x159x109x2 + x159x114x2 
+ z159z97z2 + z159z109z2 + z159z114z2 
<= 2
x4x97x2 + x4x109x2 + x4x114x2 
+ z4z97z2 + z4z109z2 + z4z114z2 
<= 2

x119x97x2 + x119x109x2 + x119x114x2 
+ z119z97z2 + z119z109z2 + z119z114z2 
<= 1



x65x84x3 + x65x97x3 
+ z65z84z3 + z65z97z3 
<= 1
x201x84x3 + x201x97x3 
+ z201z84z3 + z201z97z3 
<= 1


x165x84x3 + x165x97x3 
+ z165z84z3 + z165z97z3 
<= 2

x212x84x3 + x212x97x3 
+ z212z84z3 + z212z97z3 
<= 2


x65x87x1 + x65x114x1 

<= 1




x119x87x1 + x119x114x1 

<= 1

x22x87x1 + x22x114x1 

<= 2
x169x87x1 + x169x114x1 

<= 2

x201x97x2 + x201x109x2 + x201x114x2 

<= 1
x159x97x2 + x159x109x2 + x159x114x2 

<= 2
x4x97x2 + x4x109x2 + x4x114x2 

<= 2

x119x97x2 + x119x109x2 + x119x114x2 

<= 1



x65x84x3 + x65x97x3 

<= 1
x201x84x3 + x201x97x3 

<= 1


x165x84x3 + x165x97x3 

<= 2

x212x84x3 + x212x97x3 

<= 2


x65x84x3 + x201x84x3 + x165x84x3 + x212x84x3 
+ y65y84y3 + y201y84y3 + y165y84y3 + y212y84y3 
- y84y97y3 - y84y0y3
= 0

x65x87x1 + x119x87x1 + x22x87x1 + x169x87x1 
+ y65y87y1 + y119y87y1 + y22y87y1 + y169y87y1 
= 0

x201x97x2 + x159x97x2 + x4x97x2 + x119x97x2 
+ y201y97y2 + y159y97y2 + y4y97y2 + y119y97y2 
- y97y114y2 - y97y0y2
= 0
x65x97x3 + x201x97x3 + x165x97x3 + x212x97x3 
+ y65y97y3 + y201y97y3 + y165y97y3 + y212y97y3 + y84y97y3 
= 0

x201x109x2 + x159x109x2 + x4x109x2 + x119x109x2 
+ y201y109y2 + y159y109y2 + y4y109y2 + y119y109y2 
- y109y114y2 - y109y0y2
= 0

x65x114x1 + x119x114x1 + x22x114x1 + x169x114x1 
+ y65y114y1 + y119y114y1 + y22y114y1 + y169y114y1 
= 0
x201x114x2 + x159x114x2 + x4x114x2 + x119x114x2 
+ y201y114y2 + y159y114y2 + y4y114y2 + y119y114y2 + y97y114y2 + y109y114y2 
= 0


x65x84x3 + x201x84x3 + x165x84x3 + x212x84x3 
+ z65z84z3 + z201z84z3 + z165z84z3 + z212z84z3 
- z84z97z3 - z84z0z3
= 0

x65x87x1 + x119x87x1 + x22x87x1 + x169x87x1 
+ z65z87z1 + z119z87z1 + z22z87z1 + z169z87z1 + z114z87z1 
= 0

x201x97x2 + x159x97x2 + x4x97x2 + x119x97x2 
+ z201z97z2 + z159z97z2 + z4z97z2 + z119z97z2 + z109z97z2 + z114z97z2 
= 0
x65x97x3 + x201x97x3 + x165x97x3 + x212x97x3 
+ z65z97z3 + z201z97z3 + z165z97z3 + z212z97z3 + z84z97z3 
= 0

x201x109x2 + x159x109x2 + x4x109x2 + x119x109x2 
+ z201z109z2 + z159z109z2 + z4z109z2 + z119z109z2 + z114z109z2 
- z109z97z2 - z109z0z2
= 0

x65x114x1 + x119x114x1 + x22x114x1 + x169x114x1 
+ z65z114z1 + z119z114z1 + z22z114z1 + z169z114z1 
- z114z87z1 - z114z0z1
= 0
x201x114x2 + x159x114x2 + x4x114x2 + x119x114x2 
+ z201z114z2 + z159z114z2 + z4z114z2 + z119z114z2 
- z114z97z2 - z114z109z2 - z114z0z2
= 0


x65x84x3 + x201x84x3 + x165x84x3 + x212x84x3 
= 0

x65x87x1 + x119x87x1 + x22x87x1 + x169x87x1 
= 0

x201x97x2 + x159x97x2 + x4x97x2 + x119x97x2 
= 0
x65x97x3 + x201x97x3 + x165x97x3 + x212x97x3 
= 0

x201x109x2 + x159x109x2 + x4x109x2 + x119x109x2 
= 0

x65x114x1 + x119x114x1 + x22x114x1 + x169x114x1 
= 0
x201x114x2 + x159x114x2 + x4x114x2 + x119x114x2 
= 0


2X84 - x65x84x3 - x201x84x3 - x165x84x3 - x212x84x3 = 0
2X87 - x65x87x1 - x119x87x1 - x22x87x1 - x169x87x1 = 0
1X97 - x201x97x2 - x159x97x2 - x4x97x2 - x119x97x2 = 0
1X97 - x65x97x3 - x201x97x3 - x165x97x3 - x212x97x3 = 0
2X109 - x201x109x2 - x159x109x2 - x4x109x2 - x119x109x2 = 0
1X114 - x65x114x1 - x119x114x1 - x22x114x1 - x169x114x1 = 0
1X114 - x201x114x2 - x159x114x2 - x4x114x2 - x119x114x2 = 0

2Y84 - y65y84y3 - y201y84y3 - y165y84y3 - y212y84y3 = 0
2Y87 - y65y87y1 - y119y87y1 - y22y87y1 - y169y87y1 = 0
1Y97 - y201y97y2 - y159y97y2 - y4y97y2 - y119y97y2 = 0
1Y97 - y65y97y3 - y201y97y3 - y165y97y3 - y212y97y3 - y84y97y3 = 0
2Y109 - y201y109y2 - y159y109y2 - y4y109y2 - y119y109y2 = 0
1Y114 - y65y114y1 - y119y114y1 - y22y114y1 - y169y114y1 = 0
1Y114 - y201y114y2 - y159y114y2 - y4y114y2 - y119y114y2 - y97y114y2 - y109y114y2 = 0

2Z84 - z65z84z3 - z201z84z3 - z165z84z3 - z212z84z3 = 0
2Z87 - z65z87z1 - z119z87z1 - z22z87z1 - z169z87z1 - z114z87z1 = 0
1Z97 - z201z97z2 - z159z97z2 - z4z97z2 - z119z97z2 - z109z97z2 - z114z97z2 = 0
1Z97 - z65z97z3 - z201z97z3 - z165z97z3 - z212z97z3 - z84z97z3 = 0
2Z109 - z201z109z2 - z159z109z2 - z4z109z2 - z119z109z2 - z114z109z2 = 0
1Z114 - z65z114z1 - z119z114z1 - z22z114z1 - z169z114z1 = 0
1Z114 - z201z114z2 - z159z114z2 - z4z114z2 - z119z114z2 = 0



s65 - s84 + 6.013399a65a84a3 <= 4.73
s65 - s87 + 6.027411a65a87a1 <= 4.73
s65 - s97 + 6.019269a65a97a3 <= 4.73
s65 - s114 + 6.033886a65a114a1 <= 4.73
s201 - s84 + 6.408207a201a84a3 <= 5.17
s201 - s97 + 6.422070a201a97a2 <= 5.17
s201 - s97 + 6.422070a201a97a3 <= 5.17
s201 - s109 + 6.417415a201a109a2 <= 5.17
s201 - s114 + 6.424891a201a114a2 <= 5.17
s159 - s97 + 6.219646a159a97a2 <= 4.97
s159 - s109 + 6.215673a159a109a2 <= 4.97
s159 - s114 + 6.223556a159a114a2 <= 4.97
s4 - s97 + 5.902698a4a97a2 <= 4.59
s4 - s109 + 5.909502a4a109a2 <= 4.59
s4 - s114 + 5.921881a4a114a2 <= 4.59
s165 - s84 + 6.268232a165a84a3 <= 5.01
s165 - s97 + 6.280526a165a97a3 <= 5.01
s119 - s87 + 6.394328a119a87a1 <= 5.12
s119 - s97 + 6.388106a119a97a2 <= 5.12
s119 - s109 + 6.394652a119a109a2 <= 5.12
s119 - s114 + 6.406987a119a114a1 <= 5.12
s119 - s114 + 6.406987a119a114a2 <= 5.12
s212 - s84 + 6.920031a212a84a3 <= 5.91
s212 - s97 + 6.932611a212a97a3 <= 5.91
s22 - s87 + 6.941097a22a87a1 <= 5.89
s22 - s114 + 6.941097a22a114a1 <= 5.89
s169 - s87 + 6.992150a169a87a1 <= 5.96
s169 - s114 + 7.011007a169a114a1 <= 5.96

t65 - t84 + 6.013399b65b84b3 <= 4.73
t65 - t87 + 6.027411b65b87b1 <= 4.73
t65 - t97 + 6.019269b65b97b3 <= 4.73
t65 - t114 + 6.033886b65b114b1 <= 4.73
t201 - t84 + 6.408207b201b84b3 <= 5.17
t201 - t97 + 6.422070b201b97b2 <= 5.17
t201 - t97 + 6.422070b201b97b3 <= 5.17
t201 - t109 + 6.417415b201b109b2 <= 5.17
t201 - t114 + 6.424891b201b114b2 <= 5.17
t159 - t97 + 6.219646b159b97b2 <= 4.97
t159 - t109 + 6.215673b159b109b2 <= 4.97
t159 - t114 + 6.223556b159b114b2 <= 4.97
t4 - t97 + 5.902698b4b97b2 <= 4.59
t4 - t109 + 5.909502b4b109b2 <= 4.59
t4 - t114 + 5.921881b4b114b2 <= 4.59
t165 - t84 + 6.268232b165b84b3 <= 5.01
t165 - t97 + 6.280526b165b97b3 <= 5.01
t119 - t87 + 6.394328b119b87b1 <= 5.12
t119 - t97 + 6.388106b119b97b2 <= 5.12
t119 - t109 + 6.394652b119b109b2 <= 5.12
t119 - t114 + 6.406987b119b114b1 <= 5.12
t119 - t114 + 6.406987b119b114b2 <= 5.12
t212 - t84 + 6.920031b212b84b3 <= 5.91
t212 - t97 + 6.932611b212b97b3 <= 5.91
t22 - t87 + 6.941097b22b87b1 <= 5.89
t22 - t114 + 6.941097b22b114b1 <= 5.89
t169 - t87 + 6.992150b169b87b1 <= 5.96
t169 - t114 + 7.011007b169b114b1 <= 5.96
t84 - t97 + 7.041082b84b97b3 <= 6.02
t97 - t114 + 7.089814b97b114b2 <= 6.06
t109 - t114 + 7.083333b109b114b2 <= 6.07

u65 - u84 + 6.013399c65c84c3 <= 4.73
u65 - u87 + 6.027411c65c87c1 <= 4.73
u65 - u97 + 6.019269c65c97c3 <= 4.73
u65 - u114 + 6.033886c65c114c1 <= 4.73
u201 - u84 + 6.408207c201c84c3 <= 5.17
u201 - u97 + 6.422070c201c97c2 <= 5.17
u201 - u97 + 6.422070c201c97c3 <= 5.17
u201 - u109 + 6.417415c201c109c2 <= 5.17
u201 - u114 + 6.424891c201c114c2 <= 5.17
u159 - u97 + 6.219646c159c97c2 <= 4.97
u159 - u109 + 6.215673c159c109c2 <= 4.97
u159 - u114 + 6.223556c159c114c2 <= 4.97
u4 - u97 + 5.902698c4c97c2 <= 4.59
u4 - u109 + 5.909502c4c109c2 <= 4.59
u4 - u114 + 5.921881c4c114c2 <= 4.59
u165 - u84 + 6.268232c165c84c3 <= 5.01
u165 - u97 + 6.280526c165c97c3 <= 5.01
u119 - u87 + 6.394328c119c87c1 <= 5.12
u119 - u97 + 6.388106c119c97c2 <= 5.12
u119 - u109 + 6.394652c119c109c2 <= 5.12
u119 - u114 + 6.406987c119c114c1 <= 5.12
u119 - u114 + 6.406987c119c114c2 <= 5.12
u212 - u84 + 6.920031c212c84c3 <= 5.91
u212 - u97 + 6.932611c212c97c3 <= 5.91
u22 - u87 + 6.941097c22c87c1 <= 5.89
u22 - u114 + 6.941097c22c114c1 <= 5.89
u169 - u87 + 6.992150c169c87c1 <= 5.96
u169 - u114 + 7.011007c169c114c1 <= 5.96
u84 - u97 + 7.391082c84c97c3 <= 6.37
u109 - u97 + 7.398856c109c97c2 <= 6.38
u114 - u87 + 7.397713c114c87c1 <= 6.36
u114 - u97 + 7.389814c114c97c2 <= 6.36
u114 - u109 + 7.373333c114c109c2 <= 6.36


x65x84x3 + x201x84x3 + x165x84x3 + x212x84x3 

- 2w84 <= 0

x65x87x1 + x119x87x1 + x22x87x1 + x169x87x1 

- 2w87 <= 0

x201x97x2 + x159x97x2 + x4x97x2 + x119x97x2 + x65x97x3 + x201x97x3 + x165x97x3 + x212x97x3 

- 2w97 <= 0

x201x109x2 + x159x109x2 + x4x109x2 + x119x109x2 

- 2w109 <= 0

x65x114x1 + x119x114x1 + x22x114x1 + x169x114x1 + x201x114x2 + x159x114x2 + x4x114x2 + x119x114x2 

- 2w114 <= 0

x65x84x3 + x201x84x3 + x165x84x3 + x212x84x3 

- w84 >= 0

x65x87x1 + x119x87x1 + x22x87x1 + x169x87x1 

- w87 >= 0

x201x97x2 + x159x97x2 + x4x97x2 + x119x97x2 + x65x97x3 + x201x97x3 + x165x97x3 + x212x97x3 

- w97 >= 0

x201x109x2 + x159x109x2 + x4x109x2 + x119x109x2 

- w109 >= 0

x65x114x1 + x119x114x1 + x22x114x1 + x169x114x1 + x201x114x2 + x159x114x2 + x4x114x2 + x119x114x2 

- w114 >= 0

s65 - t65 + 4.73w65 <= 4.73
s201 - t201 + 5.17w201 <= 5.17
s159 - t159 + 4.97w159 <= 4.97
s4 - t4 + 4.59w4 <= 4.59
s165 - t165 + 5.01w165 <= 5.01
s119 - t119 + 5.12w119 <= 5.12
s212 - t212 + 5.91w212 <= 5.91
s22 - t22 + 5.89w22 <= 5.89
s169 - t169 + 5.96w169 <= 5.96
s84 - t84 + 6.02w84 <= 6.02
s87 - t87 + 6.11w87 <= 6.11
s97 - t97 + 6.06w97 <= 6.06
s109 - t109 + 6.07w109 <= 6.07
s114 - t114 + 6.12w114 <= 6.12
s65 - u65 + 4.73w65 <= 4.73
s201 - u201 + 5.17w201 <= 5.17
s159 - u159 + 4.97w159 <= 4.97
s4 - u4 + 4.59w4 <= 4.59
s165 - u165 + 5.01w165 <= 5.01
s119 - u119 + 5.12w119 <= 5.12
s212 - u212 + 5.91w212 <= 5.91
s22 - u22 + 5.89w22 <= 5.89
s169 - u169 + 5.96w169 <= 5.96
s84 - u84 + 6.02w84 <= 6.02
s87 - u87 + 6.11w87 <= 6.11
s97 - u97 + 6.06w97 <= 6.06
s109 - u109 + 6.07w109 <= 6.07
s114 - u114 + 6.12w114 <= 6.12
s65 - r65 + 4.73w65 <= 4.73
s201 - r201 + 5.17w201 <= 5.17
s159 - r159 + 4.97w159 <= 4.97
s4 - r4 + 4.59w4 <= 4.59
s165 - r165 + 5.01w165 <= 5.01
s119 - r119 + 5.12w119 <= 5.12
s212 - r212 + 5.91w212 <= 5.91
s22 - r22 + 5.89w22 <= 5.89
s169 - r169 + 5.96w169 <= 5.96
s84 - r84 + 6.02w84 <= 6.02
s87 - r87 + 6.11w87 <= 6.11
s97 - r97 + 6.06w97 <= 6.06
s109 - r109 + 6.07w109 <= 6.07
s114 - r114 + 6.12w114 <= 6.12

s65 - t65 - 4.73w65 >= -4.73
s201 - t201 - 5.17w201 >= -5.17
s159 - t159 - 4.97w159 >= -4.97
s4 - t4 - 4.59w4 >= -4.59
s165 - t165 - 5.01w165 >= -5.01
s119 - t119 - 5.12w119 >= -5.12
s212 - t212 - 5.91w212 >= -5.91
s22 - t22 - 5.89w22 >= -5.89
s169 - t169 - 5.96w169 >= -5.96
s84 - t84 - 6.02w84 >= -6.02
s87 - t87 - 6.11w87 >= -6.11
s97 - t97 - 6.06w97 >= -6.06
s109 - t109 - 6.07w109 >= -6.07
s114 - t114 - 6.12w114 >= -6.12


s65 - u65 - 4.73w65 >= -4.73
s201 - u201 - 5.17w201 >= -5.17
s159 - u159 - 4.97w159 >= -4.97
s4 - u4 - 4.59w4 >= -4.59
s165 - u165 - 5.01w165 >= -5.01
s119 - u119 - 5.12w119 >= -5.12
s212 - u212 - 5.91w212 >= -5.91
s22 - u22 - 5.89w22 >= -5.89
s169 - u169 - 5.96w169 >= -5.96
s84 - u84 - 6.37w84 >= -6.37
s87 - u87 - 6.49w87 >= -6.49
s97 - u97 - 6.45w97 >= -6.45
s109 - u109 - 6.38w109 >= -6.38
s114 - u114 - 6.36w114 >= -6.36


s65 - r65 - 4.73w65 >= -4.73
s201 - r201 - 5.17w201 >= -5.17
s159 - r159 - 4.97w159 >= -4.97
s4 - r4 - 4.59w4 >= -4.59
s165 - r165 - 5.01w165 >= -5.01
s119 - r119 - 5.12w119 >= -5.12
s212 - r212 - 5.91w212 >= -5.91
s22 - r22 - 5.89w22 >= -5.89
s169 - r169 - 5.96w169 >= -5.96
s84 - r84 - 20.00w84 >= -20.00
s87 - r87 - 20.00w87 >= -20.00
s97 - r97 - 20.00w97 >= -20.00
s109 - r109 - 20.00w109 >= -20.00
s114 - r114 - 20.00w114 >= -20.00


s84 + 6.02a65a84a3 <= 12.02
s84 + 6.02a201a84a3 <= 12.02
s84 + 6.02a165a84a3 <= 12.02
s84 + 6.02a212a84a3 <= 12.02
s87 + 6.11a65a87a1 <= 12.11
s87 + 6.11a119a87a1 <= 12.11
s87 + 6.11a22a87a1 <= 12.11
s87 + 6.11a169a87a1 <= 12.11
s97 + 6.06a65a97a3 <= 12.06
s97 + 6.06a201a97a2 <= 12.06
s97 + 6.06a201a97a3 <= 12.06
s97 + 6.06a159a97a2 <= 12.06
s97 + 6.06a4a97a2 <= 12.06
s97 + 6.06a165a97a3 <= 12.06
s97 + 6.06a119a97a2 <= 12.06
s97 + 6.06a212a97a3 <= 12.06
s109 + 6.07a201a109a2 <= 12.07
s109 + 6.07a159a109a2 <= 12.07
s109 + 6.07a4a109a2 <= 12.07
s109 + 6.07a119a109a2 <= 12.07
s114 + 6.12a65a114a1 <= 12.12
s114 + 6.12a201a114a2 <= 12.12
s114 + 6.12a159a114a2 <= 12.12
s114 + 6.12a4a114a2 <= 12.12
s114 + 6.12a119a114a1 <= 12.12
s114 + 6.12a119a114a2 <= 12.12
s114 + 6.12a22a114a1 <= 12.12
s114 + 6.12a169a114a1 <= 12.12

u84 - 6.0c65c84c3 > 0
u84 - 6.0c201c84c3 > 0
u84 - 6.0c165c84c3 > 0
u84 - 6.0c212c84c3 > 0
u87 - 6.0c65c87c1 > 0
u87 - 6.0c119c87c1 > 0
u87 - 6.0c22c87c1 > 0
u87 - 6.0c169c87c1 > 0
u87 - 6.0c114c87c1 > 0
u97 - 6.0c65c97c3 > 0
u97 - 6.0c201c97c2 > 0
u97 - 6.0c201c97c3 > 0
u97 - 6.0c159c97c2 > 0
u97 - 6.0c4c97c2 > 0
u97 - 6.0c165c97c3 > 0
u97 - 6.0c119c97c2 > 0
u97 - 6.0c212c97c3 > 0
u97 - 6.0c84c97c3 > 0
u97 - 6.0c109c97c2 > 0
u97 - 6.0c114c97c2 > 0
u109 - 6.0c201c109c2 > 0
u109 - 6.0c159c109c2 > 0
u109 - 6.0c4c109c2 > 0
u109 - 6.0c119c109c2 > 0
u109 - 6.0c114c109c2 > 0
u114 - 6.0c65c114c1 > 0
u114 - 6.0c201c114c2 > 0
u114 - 6.0c159c114c2 > 0
u114 - 6.0c4c114c2 > 0
u114 - 6.0c119c114c1 > 0
u114 - 6.0c119c114c2 > 0
u114 - 6.0c22c114c1 > 0
u114 - 6.0c169c114c1 > 0



a65a84a3 + b65b84b3 <= 1
a201a84a3 + b201b84b3 <= 1
a165a84a3 + b165b84b3 <= 1
a212a84a3 + b212b84b3 <= 1
a65a87a1 + b65b87b1 <= 1
a119a87a1 + b119b87b1 <= 1
a22a87a1 + b22b87b1 <= 1
a169a87a1 + b169b87b1 <= 1
a65a97a3 + b65b97b3 <= 1
a201a97a2 + b201b97b2 <= 1
a201a97a3 + b201b97b3 <= 1
a159a97a2 + b159b97b2 <= 1
a4a97a2 + b4b97b2 <= 1
a165a97a3 + b165b97b3 <= 1
a119a97a2 + b119b97b2 <= 1
a212a97a3 + b212b97b3 <= 1
a201a109a2 + b201b109b2 <= 1
a159a109a2 + b159b109b2 <= 1
a4a109a2 + b4b109b2 <= 1
a119a109a2 + b119b109b2 <= 1
a65a114a1 + b65b114b1 <= 1
a201a114a2 + b201b114b2 <= 1
a159a114a2 + b159b114b2 <= 1
a4a114a2 + b4b114b2 <= 1
a119a114a1 + b119b114b1 <= 1
a119a114a2 + b119b114b2 <= 1
a22a114a1 + b22b114b1 <= 1
a169a114a1 + b169b114b1 <= 1


a65a84a3 + c65c84c3 <= 1
a201a84a3 + c201c84c3 <= 1
a165a84a3 + c165c84c3 <= 1
a212a84a3 + c212c84c3 <= 1
a65a87a1 + c65c87c1 <= 1
a119a87a1 + c119c87c1 <= 1
a22a87a1 + c22c87c1 <= 1
a169a87a1 + c169c87c1 <= 1
a65a97a3 + c65c97c3 <= 1
a201a97a2 + c201c97c2 <= 1
a201a97a3 + c201c97c3 <= 1
a159a97a2 + c159c97c2 <= 1
a4a97a2 + c4c97c2 <= 1
a165a97a3 + c165c97c3 <= 1
a119a97a2 + c119c97c2 <= 1
a212a97a3 + c212c97c3 <= 1
a201a109a2 + c201c109c2 <= 1
a159a109a2 + c159c109c2 <= 1
a4a109a2 + c4c109c2 <= 1
a119a109a2 + c119c109c2 <= 1
a65a114a1 + c65c114c1 <= 1
a201a114a2 + c201c114c2 <= 1
a159a114a2 + c159c114c2 <= 1
a4a114a2 + c4c114c2 <= 1
a119a114a1 + c119c114c1 <= 1
a119a114a2 + c119c114c2 <= 1
a22a114a1 + c22c114c1 <= 1
a169a114a1 + c169c114c1 <= 1


a65a84a3 + d65d84d3 <= 1
a201a84a3 + d201d84d3 <= 1
a165a84a3 + d165d84d3 <= 1
a212a84a3 + d212d84d3 <= 1
a65a87a1 + d65d87d1 <= 1
a119a87a1 + d119d87d1 <= 1
a22a87a1 + d22d87d1 <= 1
a169a87a1 + d169d87d1 <= 1
a65a97a3 + d65d97d3 <= 1
a201a97a2 + d201d97d2 <= 1
a201a97a3 + d201d97d3 <= 1
a159a97a2 + d159d97d2 <= 1
a4a97a2 + d4d97d2 <= 1
a165a97a3 + d165d97d3 <= 1
a119a97a2 + d119d97d2 <= 1
a212a97a3 + d212d97d3 <= 1
a201a109a2 + d201d109d2 <= 1
a159a109a2 + d159d109d2 <= 1
a4a109a2 + d4d109d2 <= 1
a119a109a2 + d119d109d2 <= 1
a65a114a1 + d65d114d1 <= 1
a201a114a2 + d201d114d2 <= 1
a159a114a2 + d159d114d2 <= 1
a4a114a2 + d4d114d2 <= 1
a119a114a1 + d119d114d1 <= 1
a119a114a2 + d119d114d2 <= 1
a22a114a1 + d22d114d1 <= 1
a169a114a1 + d169d114d1 <= 1

x65x84x3 - 2a65a84a3 <= 0
x65x87x1 - 2a65a87a1 <= 0
x65x97x3 - 1a65a97a3 <= 0
x65x114x1 - 1a65a114a1 <= 0
x201x84x3 - 2a201a84a3 <= 0
x201x97x2 - 1a201a97a2 <= 0
x201x97x3 - 1a201a97a3 <= 0
x201x109x2 - 2a201a109a2 <= 0
x201x114x2 - 1a201a114a2 <= 0
x159x97x2 - 1a159a97a2 <= 0
x159x109x2 - 2a159a109a2 <= 0
x159x114x2 - 1a159a114a2 <= 0
x4x97x2 - 1a4a97a2 <= 0
x4x109x2 - 2a4a109a2 <= 0
x4x114x2 - 1a4a114a2 <= 0
x165x84x3 - 2a165a84a3 <= 0
x165x97x3 - 1a165a97a3 <= 0
x119x87x1 - 2a119a87a1 <= 0
x119x97x2 - 1a119a97a2 <= 0
x119x109x2 - 2a119a109a2 <= 0
x119x114x1 - 1a119a114a1 <= 0
x119x114x2 - 1a119a114a2 <= 0
x212x84x3 - 2a212a84a3 <= 0
x212x97x3 - 1a212a97a3 <= 0
x22x87x1 - 2a22a87a1 <= 0
x22x114x1 - 1a22a114a1 <= 0
x169x87x1 - 2a169a87a1 <= 0
x169x114x1 - 1a169a114a1 <= 0
y65y84y3 - 2b65b84b3 <= 0
y65y87y1 - 2b65b87b1 <= 0
y65y97y3 - 1b65b97b3 <= 0
y65y114y1 - 1b65b114b1 <= 0
y201y84y3 - 2b201b84b3 <= 0
y201y97y2 - 1b201b97b2 <= 0
y201y97y3 - 1b201b97b3 <= 0
y201y109y2 - 2b201b109b2 <= 0
y201y114y2 - 1b201b114b2 <= 0
y159y97y2 - 1b159b97b2 <= 0
y159y109y2 - 2b159b109b2 <= 0
y159y114y2 - 1b159b114b2 <= 0
y4y97y2 - 1b4b97b2 <= 0
y4y109y2 - 2b4b109b2 <= 0
y4y114y2 - 1b4b114b2 <= 0
y165y84y3 - 2b165b84b3 <= 0
y165y97y3 - 1b165b97b3 <= 0
y119y87y1 - 2b119b87b1 <= 0
y119y97y2 - 1b119b97b2 <= 0
y119y109y2 - 2b119b109b2 <= 0
y119y114y1 - 1b119b114b1 <= 0
y119y114y2 - 1b119b114b2 <= 0
y212y84y3 - 2b212b84b3 <= 0
y212y97y3 - 1b212b97b3 <= 0
y22y87y1 - 2b22b87b1 <= 0
y22y114y1 - 1b22b114b1 <= 0
y169y87y1 - 2b169b87b1 <= 0
y169y114y1 - 1b169b114b1 <= 0
y84y97y3 - 1b84b97b3 <= 0
y97y114y2 - 1b97b114b2 <= 0
y109y114y2 - 1b109b114b2 <= 0
z65z84z3 - 2c65c84c3 <= 0
z65z87z1 - 2c65c87c1 <= 0
z65z97z3 - 1c65c97c3 <= 0
z65z114z1 - 1c65c114c1 <= 0
z201z84z3 - 2c201c84c3 <= 0
z201z97z2 - 1c201c97c2 <= 0
z201z97z3 - 1c201c97c3 <= 0
z201z109z2 - 2c201c109c2 <= 0
z201z114z2 - 1c201c114c2 <= 0
z159z97z2 - 1c159c97c2 <= 0
z159z109z2 - 2c159c109c2 <= 0
z159z114z2 - 1c159c114c2 <= 0
z4z97z2 - 1c4c97c2 <= 0
z4z109z2 - 2c4c109c2 <= 0
z4z114z2 - 1c4c114c2 <= 0
z165z84z3 - 2c165c84c3 <= 0
z165z97z3 - 1c165c97c3 <= 0
z119z87z1 - 2c119c87c1 <= 0
z119z97z2 - 1c119c97c2 <= 0
z119z109z2 - 2c119c109c2 <= 0
z119z114z1 - 1c119c114c1 <= 0
z119z114z2 - 1c119c114c2 <= 0
z212z84z3 - 2c212c84c3 <= 0
z212z97z3 - 1c212c97c3 <= 0
z22z87z1 - 2c22c87c1 <= 0
z22z114z1 - 1c22c114c1 <= 0
z169z87z1 - 2c169c87c1 <= 0
z169z114z1 - 1c169c114c1 <= 0
z84z97z3 - 1c84c97c3 <= 0
z109z97z2 - 1c109c97c2 <= 0
z114z87z1 - 2c114c87c1 <= 0
z114z97z2 - 1c114c97c2 <= 0
z114z109z2 - 2c114c109c2 <= 0

Bounds
s65 = 4.728599
t65 = 4.728599
u65 = 4.728599
r65 = 4.728599
s201 = 5.171470
t201 = 5.171470
u201 = 5.171470
r201 = 5.171470
s159 = 4.971542
t159 = 4.971542
u159 = 4.971542
r159 = 4.971542
s4 = 4.592572
t4 = 4.592572
u4 = 4.592572
r4 = 4.592572
s165 = 5.006868
t165 = 5.006868
u165 = 5.006868
r165 = 5.006868
s119 = 5.119778
t119 = 5.119778
u119 = 5.119778
r119 = 5.119778
s212 = 5.905123
t212 = 5.905123
u212 = 5.905123
r212 = 5.905123
s22 = 5.890325
t22 = 5.890325
u22 = 5.890325
r22 = 5.890325
s169 = 5.963866
t169 = 5.963866
u169 = 5.963866
r169 = 5.963866
5.37 <= s84 <= 6.02
5.49 <= s87 <= 6.11
5.45 <= s97 <= 6.06
5.38 <= s109 <= 6.07
5.36 <= s114 <= 6.12

5.02 <= t84 <= 6.02
5.11 <= t87 <= 6.11
5.06 <= t97 <= 6.06
5.07 <= t109 <= 6.07
5.12 <= t114 <= 6.12

5.37 <= u84 <= 6.37
5.49 <= u87 <= 6.49
5.45 <= u97 <= 6.45
5.38 <= u109 <= 6.38
5.36 <= u114 <= 6.36

0.00 <= r84 <= 20.00
0.00 <= r87 <= 20.00
0.00 <= r97 <= 20.00
0.00 <= r109 <= 20.00
0.00 <= r114 <= 20.00

General
x65x84x3 x65x87x1 x65x97x3 x65x114x1 
x201x84x3 x201x97x2 x201x97x3 x201x109x2 x201x114x2 
x159x97x2 x159x109x2 x159x114x2 
x4x97x2 x4x109x2 x4x114x2 
x165x84x3 x165x97x3 
x119x87x1 x119x97x2 x119x109x2 x119x114x1 x119x114x2 
x212x84x3 x212x97x3 
x22x87x1 x22x114x1 
x169x87x1 x169x114x1 

y65y84y3 y65y87y1 y65y97y3 y65y114y1 
y201y84y3 y201y97y2 y201y97y3 y201y109y2 y201y114y2 
y159y97y2 y159y109y2 y159y114y2 
y4y97y2 y4y109y2 y4y114y2 
y165y84y3 y165y97y3 
y119y87y1 y119y97y2 y119y109y2 y119y114y1 y119y114y2 
y212y84y3 y212y97y3 
y22y87y1 y22y114y1 
y169y87y1 y169y114y1 
y84y97y3 
y97y114y2 
y109y114y2 

z65z84z3 z65z87z1 z65z97z3 z65z114z1 
z201z84z3 z201z97z2 z201z97z3 z201z109z2 z201z114z2 
z159z97z2 z159z109z2 z159z114z2 
z4z97z2 z4z109z2 z4z114z2 
z165z84z3 z165z97z3 
z119z87z1 z119z97z2 z119z109z2 z119z114z1 z119z114z2 
z212z84z3 z212z97z3 
z22z87z1 z22z114z1 
z169z87z1 z169z114z1 
z84z97z3 
z109z97z2 
z114z87z1 z114z97z2 z114z109z2 


Binaries
X84 X87 X97 X109 X114 
Y84 Y87 Y97 Y109 Y114 
Z84 Z87 Z97 Z109 Z114 


w84 w87 w97 w109 w114 

a65a84a3 a65a87a1 a65a97a3 a65a114a1 
a201a84a3 a201a97a2 a201a97a3 a201a109a2 a201a114a2 
a159a97a2 a159a109a2 a159a114a2 
a4a97a2 a4a109a2 a4a114a2 
a165a84a3 a165a97a3 
a119a87a1 a119a97a2 a119a109a2 a119a114a1 a119a114a2 
a212a84a3 a212a97a3 
a22a87a1 a22a114a1 
a169a87a1 a169a114a1 

b65b84b3 b65b87b1 b65b97b3 b65b114b1 
b201b84b3 b201b97b2 b201b97b3 b201b109b2 b201b114b2 
b159b97b2 b159b109b2 b159b114b2 
b4b97b2 b4b109b2 b4b114b2 
b165b84b3 b165b97b3 
b119b87b1 b119b97b2 b119b109b2 b119b114b1 b119b114b2 
b212b84b3 b212b97b3 
b22b87b1 b22b114b1 
b169b87b1 b169b114b1 
b84b97b3 
b97b114b2 
b109b114b2 

c65c84c3 c65c87c1 c65c97c3 c65c114c1 
c201c84c3 c201c97c2 c201c97c3 c201c109c2 c201c114c2 
c159c97c2 c159c109c2 c159c114c2 
c4c97c2 c4c109c2 c4c114c2 
c165c84c3 c165c97c3 
c119c87c1 c119c97c2 c119c109c2 c119c114c1 c119c114c2 
c212c84c3 c212c97c3 
c22c87c1 c22c114c1 
c169c87c1 c169c114c1 
c84c97c3 
c109c97c2 
c114c87c1 c114c97c2 c114c109c2 


End